p edges 70 805
e 1 2
e 1 15
e 1 17
e 1 19
e 1 27
e 1 29
e 1 31
e 1 33
e 1 35
e 1 37
e 1 39
e 1 47
e 1 49
e 1 51
e 1 53
e 1 55
e 1 57
e 1 59
e 1 61
e 1 63
e 1 65
e 1 67
e 1 69
e 2 16
e 2 18
e 2 20
e 2 28
e 2 30
e 2 32
e 2 34
e 2 36
e 2 38
e 2 40
e 2 48
e 2 50
e 2 52
e 2 54
e 2 56
e 2 58
e 2 60
e 2 62
e 2 64
e 2 66
e 2 68
e 2 70
e 3 4
e 3 11
e 3 13
e 3 19
e 3 23
e 3 25
e 3 31
e 3 33
e 3 35
e 3 37
e 3 39
e 3 43
e 3 45
e 3 51
e 3 53
e 3 55
e 3 57
e 3 59
e 3 61
e 3 63
e 3 65
e 3 67
e 3 69
e 4 12
e 4 14
e 4 20
e 4 24
e 4 26
e 4 32
e 4 34
e 4 36
e 4 38
e 4 40
e 4 44
e 4 46
e 4 52
e 4 54
e 4 56
e 4 58
e 4 60
e 4 62
e 4 64
e 4 66
e 4 68
e 4 70
e 5 6
e 5 9
e 5 13
e 5 17
e 5 21
e 5 25
e 5 29
e 5 33
e 5 35
e 5 37
e 5 39
e 5 41
e 5 45
e 5 49
e 5 53
e 5 55
e 5 57
e 5 59
e 5 61
e 5 63
e 5 65
e 5 67
e 5 69
e 6 10
e 6 14
e 6 18
e 6 22
e 6 26
e 6 30
e 6 34
e 6 36
e 6 38
e 6 40
e 6 42
e 6 46
e 6 50
e 6 54
e 6 56
e 6 58
e 6 60
e 6 62
e 6 64
e 6 66
e 6 68
e 6 70
e 7 8
e 7 9
e 7 11
e 7 15
e 7 21
e 7 23
e 7 27
e 7 33
e 7 35
e 7 37
e 7 39
e 7 41
e 7 43
e 7 47
e 7 53
e 7 55
e 7 57
e 7 59
e 7 61
e 7 63
e 7 65
e 7 67
e 7 69
e 8 10
e 8 12
e 8 16
e 8 22
e 8 24
e 8 28
e 8 34
e 8 36
e 8 38
e 8 40
e 8 42
e 8 44
e 8 48
e 8 54
e 8 56
e 8 58
e 8 60
e 8 62
e 8 64
e 8 66
e 8 68
e 8 70
e 9 10
e 9 19
e 9 23
e 9 25
e 9 27
e 9 29
e 9 31
e 9 37
e 9 39
e 9 43
e 9 45
e 9 47
e 9 49
e 9 51
e 9 57
e 9 59
e 9 61
e 9 63
e 9 65
e 9 67
e 9 69
e 10 20
e 10 24
e 10 26
e 10 28
e 10 30
e 10 32
e 10 38
e 10 40
e 10 44
e 10 46
e 10 48
e 10 50
e 10 52
e 10 58
e 10 60
e 10 62
e 10 64
e 10 66
e 10 68
e 10 70
e 11 12
e 11 17
e 11 21
e 11 25
e 11 27
e 11 29
e 11 31
e 11 35
e 11 39
e 11 41
e 11 45
e 11 47
e 11 49
e 11 51
e 11 55
e 11 59
e 11 61
e 11 63
e 11 65
e 11 67
e 11 69
e 12 18
e 12 22
e 12 26
e 12 28
e 12 30
e 12 32
e 12 36
e 12 40
e 12 42
e 12 46
e 12 48
e 12 50
e 12 52
e 12 56
e 12 60
e 12 62
e 12 64
e 12 66
e 12 68
e 12 70
e 13 14
e 13 15
e 13 21
e 13 23
e 13 27
e 13 29
e 13 31
e 13 33
e 13 39
e 13 41
e 13 43
e 13 47
e 13 49
e 13 51
e 13 53
e 13 59
e 13 61
e 13 63
e 13 65
e 13 67
e 13 69
e 14 16
e 14 22
e 14 24
e 14 28
e 14 30
e 14 32
e 14 34
e 14 40
e 14 42
e 14 44
e 14 48
e 14 50
e 14 52
e 14 54
e 14 60
e 14 62
e 14 64
e 14 66
e 14 68
e 14 70
e 15 16
e 15 21
e 15 23
e 15 25
e 15 29
e 15 31
e 15 35
e 15 37
e 15 41
e 15 43
e 15 45
e 15 49
e 15 51
e 15 55
e 15 57
e 15 61
e 15 63
e 15 65
e 15 67
e 15 69
e 16 22
e 16 24
e 16 26
e 16 30
e 16 32
e 16 36
e 16 38
e 16 42
e 16 44
e 16 46
e 16 50
e 16 52
e 16 56
e 16 58
e 16 62
e 16 64
e 16 66
e 16 68
e 16 70
e 17 18
e 17 21
e 17 23
e 17 25
e 17 27
e 17 31
e 17 33
e 17 37
e 17 41
e 17 43
e 17 45
e 17 47
e 17 51
e 17 53
e 17 57
e 17 61
e 17 63
e 17 65
e 17 67
e 17 69
e 18 22
e 18 24
e 18 26
e 18 28
e 18 32
e 18 34
e 18 38
e 18 42
e 18 44
e 18 46
e 18 48
e 18 52
e 18 54
e 18 58
e 18 62
e 18 64
e 18 66
e 18 68
e 18 70
e 19 20
e 19 21
e 19 23
e 19 25
e 19 27
e 19 29
e 19 33
e 19 35
e 19 41
e 19 43
e 19 45
e 19 47
e 19 49
e 19 53
e 19 55
e 19 61
e 19 63
e 19 65
e 19 67
e 19 69
e 20 22
e 20 24
e 20 26
e 20 28
e 20 30
e 20 34
e 20 36
e 20 42
e 20 44
e 20 46
e 20 48
e 20 50
e 20 54
e 20 56
e 20 62
e 20 64
e 20 66
e 20 68
e 20 70
e 21 22
e 21 31
e 21 37
e 21 39
e 21 43
e 21 45
e 21 47
e 21 49
e 21 51
e 21 53
e 21 55
e 21 57
e 21 59
e 21 65
e 21 67
e 21 69
e 22 32
e 22 38
e 22 40
e 22 44
e 22 46
e 22 48
e 22 50
e 22 52
e 22 54
e 22 56
e 22 58
e 22 60
e 22 66
e 22 68
e 22 70
e 23 24
e 23 29
e 23 35
e 23 39
e 23 41
e 23 45
e 23 47
e 23 49
e 23 51
e 23 53
e 23 55
e 23 57
e 23 59
e 23 63
e 23 67
e 23 69
e 24 30
e 24 36
e 24 40
e 24 42
e 24 46
e 24 48
e 24 50
e 24 52
e 24 54
e 24 56
e 24 58
e 24 60
e 24 64
e 24 68
e 24 70
e 25 26
e 25 27
e 25 33
e 25 39
e 25 41
e 25 43
e 25 47
e 25 49
e 25 51
e 25 53
e 25 55
e 25 57
e 25 59
e 25 61
e 25 67
e 25 69
e 26 28
e 26 34
e 26 40
e 26 42
e 26 44
e 26 48
e 26 50
e 26 52
e 26 54
e 26 56
e 26 58
e 26 60
e 26 62
e 26 68
e 26 70
e 27 28
e 27 35
e 27 37
e 27 41
e 27 43
e 27 45
e 27 49
e 27 51
e 27 53
e 27 55
e 27 57
e 27 59
e 27 63
e 27 65
e 27 69
e 28 36
e 28 38
e 28 42
e 28 44
e 28 46
e 28 50
e 28 52
e 28 54
e 28 56
e 28 58
e 28 60
e 28 64
e 28 66
e 28 70
e 29 30
e 29 33
e 29 37
e 29 41
e 29 43
e 29 45
e 29 47
e 29 51
e 29 53
e 29 55
e 29 57
e 29 59
e 29 61
e 29 65
e 29 69
e 30 34
e 30 38
e 30 42
e 30 44
e 30 46
e 30 48
e 30 52
e 30 54
e 30 56
e 30 58
e 30 60
e 30 62
e 30 66
e 30 70
e 31 32
e 31 33
e 31 35
e 31 41
e 31 43
e 31 45
e 31 47
e 31 49
e 31 53
e 31 55
e 31 57
e 31 59
e 31 61
e 31 63
e 31 69
e 32 34
e 32 36
e 32 42
e 32 44
e 32 46
e 32 48
e 32 50
e 32 54
e 32 56
e 32 58
e 32 60
e 32 62
e 32 64
e 32 70
e 33 34
e 33 41
e 33 43
e 33 45
e 33 47
e 33 49
e 33 51
e 33 55
e 33 57
e 33 59
e 33 63
e 33 65
e 33 67
e 34 42
e 34 44
e 34 46
e 34 48
e 34 50
e 34 52
e 34 56
e 34 58
e 34 60
e 34 64
e 34 66
e 34 68
e 35 36
e 35 41
e 35 43
e 35 45
e 35 47
e 35 49
e 35 51
e 35 53
e 35 57
e 35 59
e 35 61
e 35 65
e 35 67
e 36 42
e 36 44
e 36 46
e 36 48
e 36 50
e 36 52
e 36 54
e 36 58
e 36 60
e 36 62
e 36 66
e 36 68
e 37 38
e 37 41
e 37 43
e 37 45
e 37 47
e 37 49
e 37 51
e 37 53
e 37 55
e 37 59
e 37 61
e 37 63
e 37 67
e 38 42
e 38 44
e 38 46
e 38 48
e 38 50
e 38 52
e 38 54
e 38 56
e 38 60
e 38 62
e 38 64
e 38 68
e 39 40
e 39 41
e 39 43
e 39 45
e 39 47
e 39 49
e 39 51
e 39 53
e 39 55
e 39 57
e 39 61
e 39 63
e 39 65
e 40 42
e 40 44
e 40 46
e 40 48
e 40 50
e 40 52
e 40 54
e 40 56
e 40 58
e 40 62
e 40 64
e 40 66
e 41 42
e 41 51
e 41 57
e 41 59
e 41 65
e 41 67
e 41 69
e 42 52
e 42 58
e 42 60
e 42 66
e 42 68
e 42 70
e 43 44
e 43 49
e 43 55
e 43 59
e 43 63
e 43 67
e 43 69
e 44 50
e 44 56
e 44 60
e 44 64
e 44 68
e 44 70
e 45 46
e 45 47
e 45 53
e 45 59
e 45 61
e 45 67
e 45 69
e 46 48
e 46 54
e 46 60
e 46 62
e 46 68
e 46 70
e 47 48
e 47 55
e 47 57
e 47 63
e 47 65
e 47 69
e 48 56
e 48 58
e 48 64
e 48 66
e 48 70
e 49 50
e 49 53
e 49 57
e 49 61
e 49 65
e 49 69
e 50 54
e 50 58
e 50 62
e 50 66
e 50 70
e 51 52
e 51 53
e 51 55
e 51 61
e 51 63
e 51 69
e 52 54
e 52 56
e 52 62
e 52 64
e 52 70
e 53 54
e 53 63
e 53 65
e 53 67
e 54 64
e 54 66
e 54 68
e 55 56
e 55 61
e 55 65
e 55 67
e 56 62
e 56 66
e 56 68
e 57 58
e 57 61
e 57 63
e 57 67
e 58 62
e 58 64
e 58 68
e 59 60
e 59 61
e 59 63
e 59 65
e 60 62
e 60 64
e 60 66
e 61 62
e 63 64
e 65 66
e 67 68
e 69 70
w 1 500
w 2 500
w 3 500
w 4 500
w 5 500
w 6 500
w 7 500
w 8 500
w 9 500
w 10 500
w 11 500
w 12 500
w 13 500
w 14 500
w 15 500
w 16 500
w 17 500
w 18 500
w 19 500
w 20 500
w 21 500
w 22 500
w 23 500
w 24 500
w 25 500
w 26 500
w 27 500
w 28 500
w 29 500
w 30 500
w 31 500
w 32 500
w 33 500
w 34 500
w 35 500
w 36 500
w 37 500
w 38 500
w 39 500
w 40 500
w 41 500
w 42 500
w 43 500
w 44 500
w 45 500
w 46 500
w 47 500
w 48 500
w 49 500
w 50 500
w 51 500
w 52 500
w 53 500
w 54 500
w 55 500
w 56 500
w 57 500
w 58 500
w 59 500
w 60 500
w 61 500
w 62 500
w 63 500
w 64 500
w 65 500
w 66 500
w 67 500
w 68 500
w 69 500
w 70 500
n 1 C0001
n 2 C0002
n 3 C0023
n 4 C0024
n 5 C0045
n 6 C0046
n 7 C0067
n 8 C0068
n 9 C0089
n 10 C0090
n 11 C0111
n 12 C0112
n 13 C0133
n 14 C0134
n 15 C0155
n 16 C0156
n 17 C0177
n 18 C0178
n 19 C0199
n 20 C0200
n 21 C0221
n 22 C0222
n 23 C0243
n 24 C0244
n 25 C0265
n 26 C0266
n 27 C0287
n 28 C0288
n 29 C0309
n 30 C0310
n 31 C0331
n 32 C0332
n 33 C0353
n 34 C0354
n 35 C0375
n 36 C0376
n 37 C0397
n 38 C0398
n 39 C0419
n 40 C0420
n 41 C0441
n 42 C0442
n 43 C0463
n 44 C0464
n 45 C0485
n 46 C0486
n 47 C0507
n 48 C0508
n 49 C0529
n 50 C0530
n 51 C0551
n 52 C0552
n 53 C0573
n 54 C0574
n 55 C0595
n 56 C0596
n 57 C0617
n 58 C0618
n 59 C0639
n 60 C0640
n 61 C0661
n 62 C0662
n 63 C0683
n 64 C0684
n 65 C0705
n 66 C0706
n 67 C0727
n 68 C0728
n 69 C0749
n 70 C0750
o 1 23
o 2 24
o 3 45
o 4 46
o 5 67
o 6 68
o 7 89
o 8 90
o 9 111
o 10 112
o 11 133
o 12 134
o 13 155
o 14 156
o 15 177
o 16 178
o 17 199
o 18 200
o 19 221
o 20 222
o 21 243
o 22 244
o 23 265
o 24 266
o 25 287
o 26 288
o 27 309
o 28 310
o 29 331
o 30 332
o 31 353
o 32 354
o 33 375
o 34 376
o 35 397
o 36 398
o 37 419
o 38 420
o 39 441
o 40 442
o 41 463
o 42 464
o 43 485
o 44 486
o 45 507
o 46 508
o 47 529
o 48 530
o 49 551
o 50 552
o 51 573
o 52 574
o 53 595
o 54 596
o 55 617
o 56 618
o 57 639
o 58 640
o 59 661
o 60 662
o 61 683
o 62 684
o 63 705
o 64 706
o 65 727
o 66 728
o 67 749
o 68 750
o 69 771
o 70 772
